p edge 36 180
e 1 5
e 1 14
e 1 25
e 1 31
e 1 34
e 2 5
e 2 5
e 2 13
e 2 23
e 2 29
e 3 10
e 3 10
e 3 20
e 3 23
e 3 25
e 4 8
e 4 14
e 4 19
e 4 20
e 4 23
e 5 14
e 5 24
e 5 30
e 5 30
e 5 31
e 6 17
e 6 23
e 6 23
e 6 29
e 6 35
e 7 3
e 7 14
e 7 15
e 7 20
e 7 27
e 8 1
e 8 5
e 8 9
e 8 23
e 8 23
e 9 8
e 9 17
e 9 22
e 9 29
e 9 32
e 10 14
e 10 17
e 10 27
e 10 35
e 10 36
e 11 9
e 11 18
e 11 22
e 11 25
e 11 30
e 12 2
e 12 3
e 12 17
e 12 20
e 12 20
e 13 10
e 13 14
e 13 15
e 13 32
e 13 36
e 14 15
e 14 15
e 14 24
e 14 29
e 14 36
e 15 7
e 15 11
e 15 16
e 15 32
e 15 36
e 16 12
e 16 13
e 16 27
e 16 27
e 16 30
e 17 1
e 17 10
e 17 13
e 17 15
e 17 19
e 18 3
e 18 15
e 18 22
e 18 32
e 18 34
e 19 8
e 19 15
e 19 17
e 19 26
e 19 34
e 20 7
e 20 7
e 20 13
e 20 13
e 20 34
e 21 6
e 21 23
e 21 26
e 21 28
e 21 30
e 22 8
e 22 17
e 22 21
e 22 27
e 22 34
e 23 5
e 23 11
e 23 14
e 23 16
e 23 36
e 24 13
e 24 30
e 24 35
e 24 36
e 24 36
e 25 8
e 25 15
e 25 17
e 25 29
e 25 35
e 26 1
e 26 7
e 26 15
e 26 29
e 26 32
e 27 8
e 27 10
e 27 11
e 27 16
e 27 35
e 28 7
e 28 12
e 28 13
e 28 26
e 28 26
e 29 4
e 29 8
e 29 19
e 29 34
e 29 36
e 30 19
e 30 22
e 30 26
e 30 34
e 30 36
e 31 11
e 31 13
e 31 17
e 31 19
e 31 36
e 32 11
e 32 28
e 32 31
e 32 33
e 32 33
e 33 1
e 33 5
e 33 16
e 33 23
e 33 25
e 34 8
e 34 16
e 34 18
e 34 28
e 34 29
e 35 4
e 35 6
e 35 20
e 35 28
e 35 34
e 36 16
e 36 17
e 36 17
e 36 28
e 36 29
